17	4
18	18	22	18	
0	0	0	0	0	3	2	3	4	
2	5	10	0	10	3	13	17	17	
4	5	10	10	7	3	5	6	7	
3	3	1	1	4	3	12	14	15	
2	0	9	9	0	3	10	17	17	
150	6	7	8	8	3	8	11	17	
100	4	0	0	3	2	9	10	
150	10	5	4	1	1	17	
250	7	4	7	0	3	11	14	17	
250	1	0	1	3	3	13	17	17	
125	7	0	3	0	3	12	13	17	
200	4	0	9	8	3	17	17	17	
3	0	10	8	3	3	17	17	17	
1	4	1	9	0	3	17	17	17	
7	6	0	10	1	3	16	17	17	
2	2	6	0	6	3	17	17	17	
0	0	0	0	0	0	
